r = [
0,61,103,99,51,130,153,99,115,48,16,0
];
p = [
0,27,8,15,30,28,20,26,6,12,25,0
];
e = [
0,1,19,2,6,20,10,14,2,1,9,0
];
d = [
0,88,124,122,81,158,173,125,127,77,41,175
];
d_bar = [
0,91,125,124,84,161,175,128,128,78,44,175
];
w = [
0,0.333333333,19,1,2,6.666666667,5,4.666666667,2,1,3,0
];
